[runlim] version:		1.10
[runlim] time limit:		311040000 seconds
[runlim] real time limit:	1800 seconds
[runlim] space limit:		30000 MB
[runlim] argv[0]:		python
[runlim] argv[1]:		FE.py
[runlim] argv[2]:		P-can__445.mtx.rnd
[runlim] start:			Wed Oct  9 03:59:31 2024
[runlim] main pid:		17277
[runlim] log captured:
[runlim] sample:		10.0 time, 10.3 real, 1044.7 MB
[runlim] sample:		20.0 time, 20.3 real, 2063.0 MB
120
78
Version identifier: 20.1.0.0 | 2020-11-10 | 9bedb6d68
CPXPARAM_Simplex_PGradient                       4
CPXPARAM_Read_DataCheck                          1
CPXPARAM_MIP_Strategy_File                       3
CPXPARAM_TimeLimit                               1800
CPXPARAM_WorkMem                                 122880
[runlim] sample:		30.0 time, 30.3 real, 2936.8 MB
[runlim] sample:		40.0 time, 40.3 real, 4048.5 MB
Presolve has eliminated 223 rows and 223 columns...
[runlim] sample:		50.0 time, 50.3 real, 4049.0 MB
Tried aggregator 1 time.
[runlim] sample:		66.5 time, 60.3 real, 5297.6 MB
[runlim] sample:		76.5 time, 70.3 real, 4204.5 MB
[runlim] sample:		86.5 time, 80.3 real, 4204.5 MB
[runlim] sample:		96.5 time, 90.3 real, 4204.5 MB
[runlim] sample:		106.5 time, 100.3 real, 4204.5 MB
[runlim] sample:		116.5 time, 110.3 real, 4204.5 MB
[runlim] sample:		126.5 time, 120.3 real, 4204.5 MB
Presolve has eliminated 2190 rows and 223 columns...
MIP Presolve eliminated 2190 rows and 223 columns.
MIP Presolve modified 201 coefficients.
Reduced MIP has 617899 rows, 197802 columns, and 96636255 nonzeros.
Reduced MIP has 197802 binaries, 0 generals, 0 SOSs, and 0 indicators.
Presolve time = 90.43 sec. (120840.92 ticks)
[runlim] sample:		136.5 time, 130.3 real, 5355.5 MB
[runlim] sample:		146.5 time, 140.3 real, 9895.5 MB
[runlim] sample:		156.5 time, 150.3 real, 9914.7 MB
[runlim] sample:		166.5 time, 160.3 real, 9914.7 MB
[runlim] sample:		176.5 time, 170.3 real, 9914.7 MB
[runlim] sample:		186.5 time, 180.3 real, 9914.7 MB
[runlim] sample:		196.5 time, 190.3 real, 9914.7 MB
[runlim] sample:		206.5 time, 200.3 real, 9914.7 MB
[runlim] sample:		216.5 time, 210.3 real, 9914.7 MB
Probing time = 0.47 sec. (62.85 ticks)
[runlim] sample:		227.0 time, 220.3 real, 9064.4 MB
Presolve has eliminated 0 rows and 0 columns...
[runlim] sample:		237.0 time, 230.3 real, 9092.2 MB
Tried aggregator 1 time.
[runlim] sample:		248.6 time, 240.3 real, 9072.2 MB
[runlim] sample:		258.6 time, 250.3 real, 9072.2 MB
[runlim] sample:		268.6 time, 260.3 real, 9072.2 MB
[runlim] sample:		278.6 time, 270.3 real, 9072.2 MB
[runlim] sample:		288.6 time, 280.3 real, 9072.2 MB
[runlim] sample:		298.6 time, 290.3 real, 9072.2 MB
Presolve has eliminated 0 rows and 0 columns...
[runlim] sample:		308.6 time, 300.3 real, 10564.6 MB
Detecting symmetries...
Reduced MIP has 617899 rows, 197802 columns, and 96636255 nonzeros.
Reduced MIP has 197802 binaries, 0 generals, 0 SOSs, and 0 indicators.
Presolve time = 89.33 sec. (116895.85 ticks)
[runlim] sample:		323.2 time, 310.3 real, 12276.3 MB
Probing time = 0.53 sec. (62.90 ticks)
Clique table members: 617899.
MIP emphasis: balance optimality and feasibility.
MIP search method: dynamic search.
Parallel mode: deterministic, using up to 8 threads.
[runlim] sample:		354.7 time, 320.3 real, 12972.5 MB
[runlim] sample:		404.7 time, 330.3 real, 22929.0 MB
[runlim] sample:		454.7 time, 340.3 real, 20982.5 MB
[runlim] sample:		504.7 time, 350.3 real, 25373.7 MB
[runlim] sample:		554.6 time, 360.3 real, 25374.1 MB
[runlim] sample:		604.6 time, 370.3 real, 25374.1 MB
[runlim] sample:		652.4 time, 380.3 real, 25374.2 MB
[runlim] sample:		692.4 time, 390.3 real, 26056.5 MB
[runlim] sample:		729.2 time, 400.3 real, 22556.1 MB
[runlim] sample:		759.2 time, 410.3 real, 23474.7 MB
[runlim] sample:		789.2 time, 420.3 real, 24412.8 MB
[runlim] sample:		819.1 time, 430.3 real, 25332.8 MB
[runlim] sample:		849.1 time, 440.3 real, 28337.7 MB
[runlim] end:			Wed Oct  9 04:06:54 2024
[runlim] status:		out of memory
[runlim] result:		3
[runlim] children:		0
[runlim] real:			443.16 seconds
[runlim] time:			854.95 seconds
[runlim] space:			30051.1 MB
[runlim] samples:		4428
